(set-info :origin "driver benchmark extracted from Microsoft SDV")
(set-logic HORN)
(declare-fun Proc27 (Int Int Int Bool Int) Bool)
(declare-fun Proc34 (Int Int Int Bool Int) Bool)
(declare-fun Proc24 (Int Int Int Bool Int) Bool)
(declare-fun Proc33 (Int Int Int Bool Int Int) Bool)
(declare-fun Proc4 (Int Int Int Bool Int Int) Bool)
(declare-fun Proc38 (Int Int Int Bool Int Int Int Int Int) Bool)
(declare-fun Proc13 (Int Int Int Bool) Bool)
(declare-fun Proc9 (Int Int Int Bool) Bool)
(declare-fun Proc5 (Int Int Int Bool Int Int Int) Bool)
(declare-fun Proc6 (Int Int Int Bool Int) Bool)
(declare-fun Proc12 (Int Int Int Bool Int Int Int Int) Bool)
(declare-fun Proc23 (Int Int Int Bool Int) Bool)
(declare-fun Proc14 (Int Int Int Bool) Bool)
(declare-fun Proc39 (Int Int Int Bool) Bool)
(declare-fun Proc21 (Int Int Int Bool Int) Bool)
(declare-fun Proc40 (Int Int Int Bool Int Bool Int Int Int) Bool)
(declare-fun Proc22 (Int Int Int Bool Int) Bool)
(declare-fun Proc30 (Int Int Int Bool Int) Bool)
(declare-fun Proc8 (Int Int Int Bool Int Int Int Int) Bool)
(declare-fun Proc10 (Int Int Int Bool Int) Bool)
(declare-fun Proc16 (Int Int Int Bool Int Int) Bool)
(declare-fun Proc7 (Int Int Int Bool Int Int Int) Bool)
(declare-fun Proc32 (Int Int Int Bool Int) Bool)
(declare-fun Proc25 (Int Int Int Bool Int) Bool)
(declare-fun Proc18 (Int Int Int Bool Int Int) Bool)
(declare-fun Proc29 (Int Int Int Bool Int) Bool)
(declare-fun Proc20 (Int Int Int Bool Int) Bool)
(declare-fun Proc19 (Int Int Int Bool Int Int Int Bool Int) Bool)
(declare-fun Proc3 (Int Int Int Bool Int) Bool)
(declare-fun Proc37 (Int Int Int Bool Int) Bool)
(declare-fun Proc11 (Int Int Int Bool Int Int) Bool)
(declare-fun Proc31 (Int Int Int Bool Int) Bool)
(declare-fun Proc26 (Int Int Int Bool Int) Bool)
(declare-fun Proc35 (Int Int Int Bool) Bool)
(declare-fun Proc17 (Int Int Int Bool Int) Bool)
(declare-fun Proc2 (Int Int Int Bool Int Int Int Int) Bool)
(declare-fun Proc28 (Int Int Int Bool Int) Bool)
(declare-fun Proc0 (Int Int Int Bool Int Int Int Int) Bool)
(declare-fun Proc15 (Int Int Int Bool) Bool)
(declare-fun Proc1 (Int Int Int Bool Int Int Int Int Int) Bool)
(declare-fun Proc36 (Int Int Int Bool Int Int Int Int) Bool)
(assert (forall ((A Int)
         (B Int)
         (C Int)
         (D Int)
         (E Int)
         (F Int)
         (G Int)
         (H Int)
         (I Bool))
  (let ((a!1 (not (or (not I) (not (= H G))))))
    (=> a!1 (Proc0 F E D I C B A H)))))
(assert (forall ((A Int)
         (B Int)
         (C Int)
         (D Int)
         (E Int)
         (F Int)
         (G Int)
         (H Int)
         (I Bool)
         (J Int)
         (K Int)
         (L Int)
         (M Int)
         (N Int)
         (O Int)
         (P Int)
         (Q Int)
         (R Int)
         (S Int)
         (T Int)
         (U Int)
         (V Int))
  (let ((a!1 (and (not (<= T (+ 4 V))) (not (<= T U))))
        (a!2 (or (not (Proc1 T R Q I P S O V N)) (not (and (= M 259) (= L T)))))
        (a!4 (or (not (Proc1 T R Q I K S J V H)) (not (and (= M 259) (= L T)))))
        (a!6 (or (not (Proc1 T R Q I G S F V E)) (not (and (= M 259) (= L T)))))
        (a!8 (or (not (Proc1 T R Q I D S C V B)) (not (and (= M 259) (= L T))))))
  (let ((a!3 (and a!2 (not (and (= M 259) (= L T)))))
        (a!5 (and a!4 (not (and (= M 259) (= L T)))))
        (a!7 (and a!6 (not (and (= M 259) (= L T)))))
        (a!9 (and a!8 (not (and (= M 259) (= L T))))))
  (let ((a!10 (or (not I)
                  (not (= V U))
                  (not a!1)
                  (and (or (= S 0) a!3)
                       (or (= S 0) a!5)
                       (or (= S 0) a!7)
                       (or (= S 0) a!9)))))
    (=> (not a!10) (Proc2 U R Q I A S M L)))))))
(assert (forall ((A Int) (B Int) (C Int) (D Int) (I Bool)) (=> I (Proc3 D C B I A))))
(assert (forall ((A Int)
         (B Int)
         (C Int)
         (D Int)
         (E Int)
         (F Int)
         (G Int)
         (H Int)
         (I Bool)
         (J Int))
  (let ((a!1 (and (not (<= G (+ 1 J))) (not (<= G H)))))
  (let ((a!2 (or (not I)
                 (not (= J H))
                 (not a!1)
                 (not (Proc4 G F E I J D))
                 (not (and (= C G) (= B D))))))
    (=> (not a!2) (Proc5 H F E I A C B))))))
(assert (forall ((A Int) (B Int) (C Int) (D Int) (E Int) (I Bool))
  (let ((a!1 (not (or (not I) (not (= E 1))))))
    (=> a!1 (Proc4 D C B I A E)))))
(assert (forall ((A Int) (B Int) (C Int) (D Int) (I Bool)) (=> false (Proc6 D C B I A))))
(assert (forall ((A Int)
         (B Int)
         (C Int)
         (D Int)
         (E Int)
         (F Int)
         (G Int)
         (H Int)
         (I Bool)
         (J Int)
         (K Int)
         (L Int)
         (M Int))
  (let ((a!1 (or (not (= G 1))
                 (not (and (= F H) (= E G)))
                 (not (and (= D F) (= C E)))))
        (a!2 (or (= G 1)
                 (not (and (= F H) (= E G)))
                 (not (and (= D F) (= C E)))))
        (a!3 (and (not (<= A (+ 1 B))) (not (<= A L)))))
  (let ((a!4 (or (not (= M 0))
                 (not (= B L))
                 (not a!3)
                 (not (Proc6 A M K I B))
                 (not (and (= F A) (= E K)))
                 (not (and (= D F) (= C E))))))
  (let ((a!5 (and (or (= M 0) (not (Proc5 L M K I J H G)) (and a!1 a!2)) a!4)))
    (=> (not (or (not I) a!5)) (Proc7 L M K I J D C)))))))
(assert (forall ((A Int)
         (B Int)
         (C Int)
         (D Int)
         (E Int)
         (F Int)
         (G Int)
         (H Int)
         (I Bool)
         (J Int))
  (let ((a!1 (or (not (= H (- 1073741802))) (not (= G H))))
        (a!2 (or (not (Proc0 F E D I C 0 0 B))
                 (not (= H (- 1073741802)))
                 (not (= G H)))))
    (=> (not (or (not I) (= J 0) (and a!1 a!2))) (Proc8 F E D I A J C G)))))
(assert (forall ((A Int)
         (B Int)
         (C Int)
         (D Int)
         (E Int)
         (F Int)
         (G Int)
         (H Int)
         (I Bool)
         (J Int)
         (K Int)
         (L Int)
         (M Int)
         (N Int)
         (O Int))
  (let ((a!1 (not (and (not (= K 0)) (Proc2 O N M I H J G F))))
        (a!3 (or (not (Proc3 O N M I J))
                 (= J 0)
                 (not (Proc11 O N M I J 0))
                 (not (= A (- 1073741810)))
                 (not (and (= E A) (= D O)))
                 (not (and (= C E) (= B D))))))
  (let ((a!2 (or (not (Proc3 O N M I J))
                 (not (Proc10 O N M I J))
                 (= K 0)
                 a!1
                 (not (and (= E G) (= D F)))
                 (not (and (= C E) (= B D))))))
  (let ((a!4 (not (or (not I)
                      (not (Proc9 O N M I))
                      (= L 0)
                      (= K 0)
                      (and a!2 a!3)))))
    (=> a!4 (Proc12 O N M I L J C B)))))))
(assert (forall ((A Int) (B Int) (C Int) (I Bool)) (=> I (Proc13 C B A I))))
(assert (forall ((A Int) (B Int) (C Int) (I Bool)) (=> I (Proc14 C B A I))))
(assert (forall ((A Int) (B Int) (C Int) (I Bool)) (=> I (Proc15 C B A I))))
(assert (forall ((A Int) (B Int) (C Int) (D Int) (E Int) (I Bool))
  (let ((a!1 (or (not I) (not (and (= E 0) (= D 0))))))
    (=> (not a!1) (Proc16 C B A I E D)))))
(assert (forall ((A Int)
         (B Int)
         (C Int)
         (D Int)
         (E Int)
         (F Int)
         (G Int)
         (H Int)
         (I Bool)
         (J Int)
         (K Int)
         (L Int)
         (M Int)
         (N Int)
         (O Int)
         (P Int)
         (W Bool)
         (X Bool)
         (Y Bool))
  (let ((a!1 (not (and (not (<= P 0)) (Proc17 P O N Y M))))
        (a!2 (not (and (= E G) (= D L) (= C H) (= W X) (= B J)))))
  (let ((a!3 (or (= H 0) (not (and (= G F) (not X))) a!2))
        (a!4 (or (not (and (= H 0) (= I Y))) (not (and (= G A) (= X I))) a!2)))
  (let ((a!5 (and (or (= H 1) (and a!3 a!4)) (or (not (= H 1)) (and a!3 a!4)))))
  (let ((a!6 (not (or (not Y)
                      a!1
                      (not (Proc16 M O N Y L K))
                      (not (Proc15 M L K Y))
                      (not (Proc14 M L K Y))
                      (not (Proc13 M L K Y))
                      (not (Proc18 M L K Y J H))
                      a!5))))
    (=> a!6 (Proc19 P O N Y E D C W B))))))))
(assert (forall ((A Int) (B Int) (C Int) (D Int) (I Bool))
  (let ((a!1 (not (or (not I) (not (= D 1))))))
    (=> a!1 (Proc20 C B A I D)))))
(assert (forall ((A Int) (B Int) (C Int) (D Int) (I Bool))
  (let ((a!1 (not (or (not I) (not (= D 0))))))
    (=> a!1 (Proc21 C B A I D)))))
(assert (forall ((A Int) (B Int) (C Int) (D Int) (I Bool))
  (let ((a!1 (not (or (not I) (not (= D 1))))))
    (=> a!1 (Proc22 C B A I D)))))
(assert (forall ((A Int) (B Int) (C Int) (D Int) (I Bool))
  (let ((a!1 (not (or (not I) (not (= D 0))))))
    (=> a!1 (Proc23 C B A I D)))))
(assert (forall ((A Int) (B Int) (C Int) (D Int) (I Bool))
  (let ((a!1 (not (or (not I) (not (= D 1))))))
    (=> a!1 (Proc24 C B A I D)))))
(assert (forall ((A Int) (B Int) (C Int) (D Int) (I Bool))
  (let ((a!1 (not (or (not I) (not (= D 0))))))
    (=> a!1 (Proc25 C B A I D)))))
(assert (forall ((A Int) (B Int) (C Int) (D Int) (I Bool))
  (let ((a!1 (not (or (not I) (not (= D 1))))))
    (=> a!1 (Proc26 C B A I D)))))
(assert (forall ((A Int) (B Int) (C Int) (D Int) (I Bool))
  (let ((a!1 (not (or (not I) (not (= D 1))))))
    (=> a!1 (Proc27 C B A I D)))))
(assert (forall ((A Int) (B Int) (C Int) (D Int) (I Bool))
  (let ((a!1 (not (or (not I) (not (= D 0))))))
    (=> a!1 (Proc28 C B A I D)))))
(assert (forall ((A Int) (B Int) (C Int) (D Int) (I Bool))
  (let ((a!1 (not (or (not I) (not (= D 0))))))
    (=> a!1 (Proc29 C B A I D)))))
(assert (forall ((A Int) (B Int) (C Int) (D Int) (I Bool))
  (let ((a!1 (not (or (not I) (not (= D 0))))))
    (=> a!1 (Proc30 C B A I D)))))
(assert (forall ((A Int) (B Int) (C Int) (D Int) (E Int) (I Bool))
  (let ((a!1 (or (not I) (not (= E (- 1073741823))) (not (= D E)))))
    (=> (not a!1) (Proc31 C B A I D)))))
(assert (forall ((A Int) (B Int) (C Int) (D Int) (E Int) (I Bool))
  (=> I (Proc11 E D C I B A))))
(assert (forall ((A Int) (B Int) (C Int) (D Int) (I Bool))
  (let ((a!1 (not (or (not I) (not (= D 1))))))
    (=> a!1 (Proc32 C B A I D)))))
(assert (forall ((A Int)
         (B Int)
         (C Int)
         (D Int)
         (E Int)
         (F Int)
         (G Int)
         (H Int)
         (I Bool)
         (J Int))
  (let ((a!1 (and (or (not (= J H)) (not (= G J)))
                  (or (not (= J F)) (not (= G J)))
                  (or (not (= J E)) (not (= G J))))))
    (=> (not (or (not I) a!1)) (Proc33 D C B I A G)))))
(assert (forall ((A Int) (B Int) (C Int) (D Int) (I Bool)) (=> I (Proc10 D C B I A))))
(assert (forall ((A Int)
         (B Int)
         (C Int)
         (D Int)
         (E Int)
         (F Int)
         (G Int)
         (H Int)
         (I Bool)
         (J Int)
         (K Int)
         (L Int)
         (M Int)
         (N Int)
         (O Int)
         (P Int)
         (Q Int)
         (R Int)
         (S Int)
         (T Int)
         (U Int)
         (V Int))
  (let ((a!1 (not (Proc36 P T S I O V N M)))
        (a!2 (not (and (= J L) (= H N) (= G M)))))
  (let ((a!3 (or (not (and (= M 1) (= L K))) a!2)))
  (let ((a!4 (and a!3 (or (= M 1) (= V 0) (not (= L O)) a!2))))
  (let ((a!5 (or (= R 0)
                 (not (Proc31 U T S I Q))
                 (not (and (= P U) (= O Q)))
                 a!1
                 a!4))
        (a!6 (or (= R 0)
                 (not (Proc31 U T S I F))
                 (not (and (= P U) (= O F)))
                 a!1
                 a!4))
        (a!7 (or (not (Proc31 U T S I E)) (not (and (= P U) (= O E))) a!1 a!4))
        (a!8 (or (not (Proc31 U T S I D)) (not (and (= P U) (= O D))) a!1 a!4))
        (a!9 (or (= R 0)
                 (not (Proc37 U T S I V))
                 (not (Proc12 U T S I C V B A))
                 (not (and (= P A) (= O B)))
                 a!1
                 a!4)))
  (let ((a!10 (not (or (not I)
                       (= V 0)
                       (not (Proc34 U T S I V))
                       (= R 0)
                       (not (Proc35 U T S I))
                       (and a!5 a!6 a!7 a!8 a!9)))))
    (=> a!10 (Proc38 U T S I C V J H G)))))))))
(assert (forall ((A Int)
         (B Int)
         (C Int)
         (D Int)
         (E Int)
         (F Int)
         (G Int)
         (H Int)
         (I Bool)
         (J Int)
         (K Int)
         (L Int))
  (let ((a!1 (not (and (not (= A 0)) (= F B)))))
  (let ((a!2 (and (or (not (= F 0)) (not (= E F)))
                  (or (not (Proc8 L K J I D H C B)) a!1 (not (= E F))))))
  (let ((a!3 (not (or (not I) (not (Proc33 L K J I H G)) (= G 0) a!2))))
    (=> a!3 (Proc1 L K J I D H C A E)))))))
(assert (forall ((A Int) (B Int) (C Int) (D Int) (E Int) (I Bool))
  (=> (not (or (not I) (= E 0) (= D 0))) (Proc37 C B A I E))))
(assert (forall ((A Int) (B Int) (C Int) (D Int) (I Bool))
  (=> (not (or (not I) (= D 0))) (Proc34 C B A I D))))
(assert (forall ((A Int) (B Int) (C Int) (I Bool)) (=> I (Proc9 C B A I))))
(assert (forall ((A Int)
         (B Int)
         (C Int)
         (D Int)
         (E Int)
         (F Int)
         (G Int)
         (H Int)
         (I Bool)
         (J Int)
         (K Int)
         (L Int)
         (M Int)
         (N Int)
         (O Int)
         (P Int)
         (Q Int)
         (R Int)
         (S Int)
         (T Int)
         (U Int)
         (V Int)
         (Z Int)
         (A1 Int)
         (B1 Int))
  (let ((a!1 (or (not (and (= J B1) (= H Z))) (not (and (= G J) (= F H)))))
        (a!2 (or (not (= A 1))
                 (not (and (= J B) (= H A)))
                 (not (and (= G J) (= F H)))))
        (a!3 (or (= A 1)
                 (not (and (= J B) (= H A)))
                 (not (and (= G J) (= F H)))))
        (a!4 (or (not (= V 0))
                 (not (and (= J B1) (= H Z)))
                 (not (and (= G J) (= F H))))))
  (let ((a!5 (and a!1
                  (or (= V 0)
                      (not (Proc39 B1 A1 Z I))
                      (not (Proc38 B1 A1 Z I E D C B A))
                      (and a!2 a!3))
                  a!4)))
  (let ((a!6 (not (or (not I)
                      (not (Proc22 B1 A1 Z I V))
                      (not (Proc29 B1 A1 Z I U))
                      (not (Proc23 B1 A1 Z I T))
                      (not (Proc28 B1 A1 Z I S))
                      (not (Proc21 B1 A1 Z I R))
                      (not (Proc25 B1 A1 Z I Q))
                      (not (Proc32 B1 A1 Z I P))
                      (not (Proc30 B1 A1 Z I O))
                      (not (Proc20 B1 A1 Z I N))
                      (not (Proc26 B1 A1 Z I M))
                      (not (Proc27 B1 A1 Z I L))
                      (not (Proc24 B1 A1 Z I K))
                      a!5))))
    (=> a!6 (Proc18 B1 A1 Z I G F)))))))
(assert (forall ((A Int) (B Int) (C Int) (I Bool)) (=> I (Proc35 C B A I))))
(assert (forall ((A Int)
         (B Int)
         (C Int)
         (D Int)
         (E Int)
         (F Int)
         (G Int)
         (H Int)
         (I Bool)
         (J Int)
         (K Int)
         (L Int))
  (let ((a!1 (and (not (<= J (+ 1 L))) (not (<= J K))))
        (a!2 (or (not (= E 1)) (not (and (= D F) (= C E)))))
        (a!3 (or (= E 1) (not (and (= D F) (= C E))))))
  (let ((a!4 (not (or (not I)
                      (not (= L K))
                      (not a!1)
                      (not (Proc7 J H G I L F E))
                      (and a!2 a!3)))))
    (=> a!4 (Proc36 K H G I B A D C))))))
(assert (forall ((A Int) (B Int) (C Int) (I Bool)) (=> I (Proc39 C B A I))))
(assert (forall ((A Int)
         (B Int)
         (C Int)
         (D Int)
         (E Int)
         (F Int)
         (G Int)
         (H Int)
         (I Bool)
         (J Int)
         (K Int)
         (L Int)
         (M Int)
         (N Int)
         (O Int)
         (P Int)
         (Q Int)
         (R Int)
         (S Int)
         (T Int)
         (U Int)
         (V Int)
         (Z Int)
         (A1 Int)
         (B1 Int)
         (C1 Int)
         (D1 Int)
         (E1 Int)
         (F1 Int)
         (G1 Int)
         (H1 Int)
         (I1 Int)
         (J1 Int)
         (K1 Int)
         (L1 Int)
         (M1 Int)
         (N1 Int)
         (O1 Int)
         (P1 Int)
         (Q1 Int)
         (R1 Int)
         (S1 Int)
         (T1 Int)
         (U1 Int)
         (V1 Int)
         (W1 Int)
         (X1 Int)
         (Y1 Int)
         (Z1 Int)
         (A2 Int)
         (B2 Int)
         (C2 Int)
         (D2 Int)
         (E2 Int)
         (F2 Int)
         (G2 Int)
         (H2 Int)
         (I2 Int)
         (J2 Int)
         (K2 Int)
         (L2 Int)
         (M2 Int)
         (N2 Int)
         (O2 Int)
         (P2 Int)
         (Q2 Int)
         (R2 Int)
         (S2 Int)
         (T2 Int)
         (U2 Int)
         (V2 Int)
         (W2 Int)
         (X2 Int)
         (Y2 Int)
         (Z2 Int)
         (A3 Int)
         (B3 Int)
         (C3 Int)
         (D3 Int)
         (E3 Int)
         (F3 Int)
         (G3 Int)
         (H3 Int)
         (I3 Int)
         (J3 Int)
         (K3 Int)
         (L3 Int)
         (M3 Int)
         (N3 Int)
         (O3 Int)
         (P3 Int)
         (Q3 Int)
         (R3 Int)
         (S3 Int)
         (T3 Int)
         (U3 Int)
         (V3 Int)
         (W3 Int)
         (X3 Int)
         (Y3 Int)
         (Z3 Int)
         (A4 Int)
         (B4 Int)
         (C4 Int)
         (D4 Int)
         (E4 Int)
         (F4 Int)
         (G4 Int)
         (H4 Int)
         (I4 Int)
         (J4 Int)
         (K4 Int)
         (L4 Int)
         (M4 Int)
         (N4 Int)
         (O4 Int)
         (P4 Int)
         (Q4 Int)
         (R4 Int)
         (S4 Int)
         (T4 Int)
         (U4 Int)
         (V4 Int)
         (W4 Int)
         (X4 Int)
         (Y4 Int)
         (Z4 Int)
         (A5 Int)
         (B5 Int)
         (C5 Int)
         (D5 Int)
         (E5 Int)
         (F5 Int)
         (G5 Int)
         (H5 Int)
         (I5 Int)
         (J5 Int)
         (K5 Int)
         (L5 Int)
         (M5 Int)
         (N5 Int)
         (O5 Int)
         (P5 Int)
         (Q5 Int)
         (R5 Int)
         (S5 Int)
         (T5 Int)
         (U5 Int)
         (V5 Int)
         (W5 Int)
         (X5 Int)
         (Y5 Int)
         (Z5 Int)
         (A6 Int)
         (B6 Int)
         (C6 Int)
         (D6 Int)
         (E6 Int)
         (F6 Int)
         (G6 Int)
         (H6 Int)
         (I6 Int)
         (J6 Int)
         (K6 Int)
         (L6 Int)
         (M6 Int)
         (N6 Int)
         (O6 Int)
         (P6 Int)
         (Q6 Int)
         (R6 Int)
         (S6 Int)
         (T6 Int)
         (U6 Int)
         (V6 Int)
         (W6 Int)
         (X6 Int)
         (Y6 Int)
         (Z6 Int)
         (A7 Int)
         (B7 Int)
         (C7 Int)
         (D7 Int))
  (let ((a!1 (and (not (<= B7 (+ 16 D7))) (not (<= B7 C7))))
        (a!2 (and (= A7 B7)
                  (not (<= Z6 (+ 16 A7)))
                  (not (<= Z6 B7))
                  (= Y6 Z6)
                  (not (<= X6 (+ 16 Y6)))
                  (not (<= X6 Z6))
                  (= W6 X6)
                  (not (<= V6 (+ 16 W6)))))
        (a!3 (and (not (<= V6 X6))
                  (= U6 V6)
                  (not (<= T6 (+ 16 U6)))
                  (not (<= T6 V6))
                  (= S6 T6)
                  (not (<= R6 (+ 16 S6)))
                  (not (<= R6 T6))
                  (= Q6 R6)
                  (not (<= P6 (+ 16 Q6)))
                  (not (<= P6 R6))
                  (= O6 P6)
                  (not (<= N6 (+ 16 O6)))
                  (not (<= N6 P6))
                  (= M6 N6)
                  (not (<= L6 (+ 16 M6)))
                  (not (<= L6 N6))
                  (= K6 L6)
                  (not (<= J6 (+ 16 K6)))
                  (not (<= J6 L6))
                  (= I6 J6)
                  (not (<= H6 (+ 16 I6)))
                  (not (<= H6 J6))
                  (= G6 H6)
                  (not (<= F6 (+ 16 G6)))
                  (not (<= F6 H6))
                  (= E6 F6)
                  (not (<= D6 (+ 16 E6)))
                  (not (<= D6 F6))
                  (= C6 D6)
                  (not (<= B6 (+ 16 C6)))
                  (not (<= B6 D6))
                  (= A6 B6)
                  (not (<= Z5 (+ 16 A6)))
                  (not (<= Z5 B6))
                  (= Y5 Z5)
                  (not (<= X5 (+ 16 Y5)))
                  (not (<= X5 Z5))
                  (= W5 X5)
                  (not (<= V5 (+ 16 W5)))
                  (not (<= V5 X5))
                  (= U5 V5)
                  (not (<= T5 (+ 16 U5)))
                  (not (<= T5 V5))
                  (= S5 T5)
                  (not (<= R5 (+ 16 S5)))
                  (not (<= R5 T5))
                  (= Q5 R5)
                  (not (<= P5 (+ 16 Q5)))
                  (not (<= P5 R5))
                  (= O5 P5)
                  (not (<= N5 (+ 16 O5)))
                  (not (<= N5 P5))
                  (= M5 N5)
                  (not (<= L5 (+ 16 M5)))
                  (not (<= L5 N5))
                  (= K5 L5)
                  (not (<= J5 (+ 16 K5)))
                  (not (<= J5 L5))
                  (= I5 J5)
                  (not (<= H5 (+ 16 I5)))
                  (not (<= H5 J5))
                  (= G5 H5)
                  (not (<= F5 (+ 16 G5)))
                  (not (<= F5 H5))
                  (= E5 F5)
                  (not (<= D5 (+ 16 E5)))
                  (not (<= D5 F5))
                  (= C5 D5)
                  (not (<= B5 (+ 16 C5)))
                  (not (<= B5 D5))
                  (= A5 B5)
                  (not (<= Z4 (+ 16 A5)))
                  (not (<= Z4 B5))
                  (= Y4 Z4)
                  (not (<= X4 (+ 16 Y4)))
                  (not (<= X4 Z4))
                  (= W4 X4)
                  (not (<= V4 (+ 16 W4)))
                  (not (<= V4 X4))
                  (= U4 V4)
                  (not (<= T4 (+ 16 U4)))
                  (not (<= T4 V4))
                  (= S4 T4)
                  (not (<= R4 (+ 16 S4)))
                  (not (<= R4 T4))
                  (= Q4 R4)
                  (not (<= P4 (+ 16 Q4)))
                  (not (<= P4 R4))
                  (= O4 P4)
                  (not (<= N4 (+ 16 O4)))
                  (not (<= N4 P4))
                  (= M4 N4)
                  (not (<= L4 (+ 16 M4)))
                  (not (<= L4 N4))
                  (= K4 L4)
                  (not (<= J4 (+ 16 K4)))
                  (not (<= J4 L4))
                  (= I4 J4)
                  (not (<= H4 (+ 16 I4)))
                  (not (<= H4 J4))
                  (= G4 H4)
                  (not (<= F4 (+ 16 G4)))
                  (not (<= F4 H4))
                  (= E4 F4)
                  (not (<= D4 (+ 16 E4)))
                  (not (<= D4 F4))
                  (= C4 D4)
                  (not (<= B4 (+ 16 C4)))
                  (not (<= B4 D4))
                  (= A4 B4)
                  (not (<= Z3 (+ 16 A4)))
                  (not (<= Z3 B4))
                  (= Y3 Z3)
                  (not (<= X3 (+ 16 Y3)))
                  (not (<= X3 Z3))
                  (= W3 X3)
                  (not (<= V3 (+ 16 W3)))
                  (not (<= V3 X3))
                  (= U3 V3)
                  (not (<= T3 (+ 16 U3)))
                  (not (<= T3 V3))
                  (= S3 T3)
                  (not (<= R3 (+ 16 S3)))
                  (not (<= R3 T3))
                  (= Q3 R3)
                  (not (<= P3 (+ 16 Q3)))
                  (not (<= P3 R3))
                  (= O3 P3)
                  (not (<= N3 (+ 16 O3)))
                  (not (<= N3 P3))
                  (= M3 N3)
                  (not (<= L3 (+ 16 M3)))
                  (not (<= L3 N3))
                  (= K3 L3)
                  (not (<= J3 (+ 16 K3)))
                  (not (<= J3 L3))
                  (= I3 J3)
                  (not (<= H3 (+ 16 I3)))
                  (not (<= H3 J3))
                  (= G3 H3)
                  (not (<= F3 (+ 16 G3)))
                  (not (<= F3 H3))
                  (= E3 F3)
                  (not (<= D3 (+ 16 E3)))
                  (not (<= D3 F3))
                  (= C3 D3)
                  (not (<= B3 (+ 16 C3)))
                  (not (<= B3 D3))
                  (= A3 B3)
                  (not (<= Z2 (+ 16 A3)))
                  (not (<= Z2 B3))
                  (= Y2 Z2)
                  (not (<= X2 (+ 16 Y2)))
                  (not (<= X2 Z2))
                  (= W2 X2)
                  (not (<= V2 (+ 16 W2)))
                  (not (<= V2 X2))
                  (= U2 V2)
                  (not (<= T2 (+ 16 U2)))
                  (not (<= T2 V2))
                  (= S2 T2)
                  (not (<= R2 (+ 16 S2)))
                  (not (<= R2 T2))
                  (= Q2 R2)
                  (not (<= P2 (+ 16 Q2)))
                  (not (<= P2 R2))
                  (= O2 P2)
                  (not (<= N2 (+ 16 O2)))
                  (not (<= N2 P2))
                  (= M2 N2)
                  (not (<= L2 (+ 16 M2)))
                  (not (<= L2 N2))
                  (= K2 L2)
                  (not (<= J2 (+ 16 K2)))
                  (not (<= J2 L2))
                  (= I2 J2)
                  (not (<= H2 (+ 16 I2)))
                  (not (<= H2 J2))
                  (= G2 H2)
                  (not (<= F2 (+ 16 G2)))
                  (not (<= F2 H2))
                  (= E2 F2)
                  (not (<= D2 (+ 4 E2)))
                  (not (<= D2 F2))
                  (= C2 D2)
                  (not (<= B2 (+ 332 C2)))
                  (not (<= B2 D2))
                  (= A2 B2)
                  (not (<= Z1 (+ 4 A2)))
                  (not (<= Z1 B2))
                  (= Y1 Z1)
                  (not (<= X1 (+ 536 Y1)))
                  (not (<= X1 Z1))
                  (= W1 X1)
                  (not (<= V1 (+ 240 W1)))
                  (not (<= V1 X1))
                  (= U1 V1)
                  (not (<= T1 (+ 240 U1)))
                  (not (<= T1 V1))
                  (= S1 T1)
                  (not (<= R1 (+ 536 S1)))
                  (not (<= R1 T1))
                  (= Q1 R1)
                  (not (<= P1 (+ 240 Q1)))
                  (not (<= P1 R1))
                  (= O1 P1)
                  (not (<= N1 (+ 4 O1)))
                  (not (<= N1 P1))
                  (= M1 N1)
                  (not (<= L1 (+ 536 M1)))
                  (not (<= L1 N1))
                  (= K1 L1)
                  (not (<= J1 (+ 332 K1)))
                  (not (<= J1 L1))
                  (= I1 J1)
                  (not (<= H1 (+ 240 I1)))
                  (not (<= H1 J1))
                  (= G1 H1)
                  (not (<= F1 (+ 240 G1)))
                  (not (<= F1 H1))
                  (= E1 F1)
                  (not (<= D1 (+ 332 E1)))
                  (not (<= D1 F1))
                  (= C1 D1)
                  (not (<= B1 (+ 4 C1)))
                  (not (<= B1 D1))
                  (= A1 B1)
                  (not (<= Z (+ 536 A1)))
                  (not (<= Z B1))
                  (= V Z)
                  (not (<= U (+ 240 V)))
                  (not (<= U Z))
                  (= T U)
                  (not (<= S (+ 240 T)))
                  (not (<= S U))
                  (= R S)
                  (not (<= Q (+ 240 R)))
                  (not (<= Q S))
                  (= P Q)
                  (not (<= O (+ 240 P)))
                  (not (<= O Q))
                  (= N O)
                  (not (<= M (+ 240 N)))
                  (not (<= M O))
                  (= L M)
                  (not (<= K (+ 40 L)))
                  (not (<= K M))
                  (= J K)
                  (not (<= H (+ 332 J)))
                  (not (<= H K))
                  (= G H)
                  (not (<= F (+ 4 G)))
                  (not (<= F H))
                  (= E F)
                  (not (<= D (+ 40 E)))
                  (not (<= D F)))))
  (let ((a!4 (not (or (not I)
                      (not (= D7 C7))
                      (not a!1)
                      (not a!2)
                      (not a!3)
                      (not (= C D))))))
    (=> a!4 (Proc17 C7 B A I C))))))
(assert (forall ((A Int)
         (B Int)
         (C Int)
         (D Int)
         (E Int)
         (F Int)
         (G Int)
         (H Int)
         (I Bool)
         (J Int)
         (K Int)
         (L Int)
         (W Bool)
         (X Bool))
  (let ((a!1 (or (not X) (not (and (Proc19 L K J true H G F W E) (not W))))))
    (=> (not a!1) (Proc40 L K J X D I C B A)))))
(assert (let ((a!1 (exists ((V0 Int)
                    (V1 Int)
                    (V2 Int)
                    (V3 Bool)
                    (V4 Int)
                    (V5 Bool)
                    (V6 Int)
                    (V7 Int)
                    (V8 Int))
             (not (=> (and (Proc40 V0 V1 V2 V3 V4 V5 V6 V7 V8) (not false))
                      false)))))
  (not a!1)))

(check-sat)
